This file is generated by VASPKIT code  
   1.0000000000000000     
    10.6145257950000005    0.0000000000000000    0.0000000000000000
     0.0000000000000000   10.6145257950000005    0.0000000000000000
     0.0000000000000000    0.0000000000000000   10.6145257950000005
   C    N 
   214     1
Direct
  0.5833086406243808  0.5833086373416378  0.9167040017967025
  0.5829004107021731  0.5829004003325977  0.2507713944461472
  0.5833087624392377  0.9167044877592332  0.5833086325528143
  0.5833879136888882  0.9166117296110698  0.9166111410116571
  0.5832358718495030  0.9164830194341818  0.2502006849069645
  0.5829007258696137  0.2507719779060480  0.5829003126097447
  0.5832354175577237  0.2502010570256132  0.9164832678650612
  0.5831980293955041  0.2492615074344897  0.2492612067516475
  0.9167044658743322  0.5833087797739509  0.5833086271959971
  0.9166117383932573  0.5833879057320672  0.9166111191589934
  0.9164830282951399  0.5832358828293636  0.2502006695294980
  0.9166113507409293  0.9166113514847112  0.5833877640744234
  0.9167074370470587  0.9167074425680397  0.9167071578861865
  0.9165977608775790  0.9165977625278785  0.2500402558710704
  0.9164812934958704  0.2502001363174244  0.5832352991281624
  0.9165978795599159  0.2500404197645594  0.9165976838699592
  0.9168988367972162  0.2499783339972979  0.2499780010576274
  0.2507719772469770  0.5829007319917707  0.5829002938254106
  0.2502010588048975  0.5832354064770087  0.9164832459899941
  0.2492615182853228  0.5831979860276064  0.2492611964228644
  0.2502001165144350  0.9164812911562095  0.5832352929796372
  0.2500404144625463  0.9165978575447724  0.9165976718293862
  0.2499783255494421  0.9168988157454550  0.2499779969437483
  0.2492613791590728  0.2492613875142240  0.5831979192512193
  0.2499779789785705  0.2499779586145010  0.9168986842988645
  0.2502809628703915  0.2502809553348087  0.2502809865806483
  0.4999840838399479  0.4999840825009016  0.8330752136476534
  0.5000320065422912  0.5000320026578464  0.1671419121300346
  0.4999847125845420  0.8330747968363355  0.4999848956559774
  0.5000120026956694  0.8333223735201685  0.8333222166719452
  0.4998773435083521  0.8339588106655285  0.1660896422618023
  0.5000322364581891  0.1671427701094359  0.5000317394828429
  0.4998772910435960  0.1660899112836276  0.8339585814474191
  0.5001768605413019  0.1662631976469982  0.1662629734227465
  0.8330747878836036  0.4999847302326117  0.4999848956071133
  0.8333223686614915  0.5000120142999975  0.8333222103433258
  0.8339588374886588  0.4998773414177080  0.1660896364756113
  0.8333223905956970  0.8333224086938102  0.5000124704540809
  0.8333732704489805  0.8333732820564208  0.8333732455861593
  0.8331976395701730  0.8331976259879781  0.1668441695958975
  0.8339589053353720  0.1660891436642160  0.4998772230750816
  0.8331976472074558  0.1668436446994264  0.8331980811985673
  0.8333671224477541  0.1666894384521953  0.1666891926058724
  0.1671427615285666  0.5000322494153551  0.5000317349664272
  0.1660899218335885  0.4998772884776983  0.8339585644599623
  0.1662631974318671  0.5001768468734511  0.1662629507897364
  0.1660891309075936  0.8339589038357360  0.4998772073249498
  0.1668436347015927  0.8331976432783108  0.8331980729852972
  0.1666894299241974  0.8333671113906362  0.1666891888409552
  0.1662633187702625  0.1662633330124805  0.5001767882628485
  0.1666893727119856  0.1666893521608657  0.8333668752516559
  0.1668341372294009  0.1668341276994028  0.1668338574842494
  0.5835733177817275  0.7503016259009385  0.7503016614356639
  0.5833013587681037  0.7499857122134941  0.0834051041533854
  0.5824227228667951  0.7488412451787099  0.4175630358875750
  0.5833003233135940  0.0834043147507728  0.7499853587241176
  0.5833218911387021  0.0830750943028065  0.0830749528839476
  0.5833418220899489  0.0834512573810500  0.4167200009770227
  0.5824229820049283  0.4175629574995696  0.7488407343012256
  0.5833418175549951  0.4167202019158651  0.0834509842744922
  0.5924424460224813  0.4088678452854566  0.4088669034269969
  0.9168071755139025  0.7500927869198790  0.7500927916991813
  0.9165800690305730  0.7499767196966616  0.0834300965543378
  0.9165116186435895  0.7498830525544093  0.4167750710033928
  0.9165802288937712  0.0834300000146015  0.7499766920972206
  0.9166931184853198  0.0833619219533119  0.0833619159581431
  0.9169451358507743  0.0830251495810046  0.4167647880718874
  0.9165094137565433  0.4167730650172814  0.7498818833325345
  0.9169449968536654  0.4167649871648393  0.0830251575880681
  0.9166958732356747  0.4166643092865314  0.4166646805314755
  0.2503141197134440  0.7497203613073253  0.7497232423934719
  0.2500287377715722  0.7500490997318963  0.0832161656195964
  0.2488942526306630  0.7513286580666048  0.4170227555656751
  0.2500288762153957  0.0832163989997170  0.7500491932715931
  0.2500666243188689  0.0834534641286240  0.0834533853795350
  0.2500641195218023  0.0834487173813443  0.4167667311088508
  0.2488936024106749  0.4170224111918799  0.7513279282890366
  0.2500637760985924  0.4167663037975728  0.0834487257633612
  0.2508245784112972  0.4171908422530137  0.4171906720799541
  0.5023926145729618  0.6653875191122012  0.6653899688350862
  0.5000125131460464  0.6666118978523912  0.0000408557521823
  0.4986689624725074  0.6664539339274924  0.3336372675981778
  0.5000116081802304  0.0000402124232153  0.6666122552805689
  0.4999741785307421  0.9998473462050654  0.9998472024275245
  0.5000576148565941  0.0000401161244596  0.3334659085684422
  0.4986692532138406  0.3336370927777921  0.6664537041379077
  0.5000575761382535  0.3334658249738922  0.0000399461056801
  0.5009418923145859  0.3341552909567937  0.3341551794655118
  0.8335510339352226  0.6667633877099917  0.6667632190276507
  0.8332650457033068  0.6666841960476404  0.0000561213043611
  0.8325951821932946  0.6664671447202366  0.3340257953318471
  0.8332649943081520  0.0000562547261822  0.6666838324668660
  0.8333249478503788  0.0000228594212359  0.0000228893974068
  0.8333333485514842  0.9998526199015032  0.3333505612287055
  0.8325958325372369  0.3340296338693776  0.6664675639432360
  0.8333332978532155  0.3333505713616773  0.9998523230007450
  0.8336622933064746  0.3332285764006144  0.3332286015588508
  0.1671318957216741  0.6663110724664634  0.6663123463791507
  0.1667833105232646  0.6667405739137067  0.9998390317095982
  0.1665501991562905  0.6668367686626766  0.3333519690442799
  0.1667831038923779  0.9998388052501426  0.6667409261780648
  0.1667149535060233  0.0000274719002107  0.0000274753320539
  0.1666630894463381  0.0001480556543783  0.3333553069512973
  0.1665500907685313  0.3333517184491512  0.6668364831205338
  0.1666629213465924  0.3333550975223574  0.0001481177027358
  0.1671067142528244  0.3337299033450449  0.3337297867202409
  0.7503016102462681  0.5835733336146944  0.7503016673209260
  0.7499857238933814  0.5833013373926192  0.0834051015958579
  0.7488412490613356  0.5824227428159361  0.4175630359174889
  0.7500927847491639  0.9168071873647818  0.7500928009183383
  0.7499767347810646  0.9165800590887159  0.0834301099391510
  0.7498830319926952  0.9165116323623721  0.4167750744762557
  0.7497203577183313  0.2503141212707902  0.7497232453892977
  0.7500491217187388  0.2500287355160751  0.0832161642608753
  0.7513286659851488  0.2488942778645580  0.4170227645536784
  0.0834042991494286  0.5833003237818133  0.7499853533082259
  0.0830751007827004  0.5833218906082465  0.0830749395954982
  0.0834512550479758  0.5833418359496818  0.4167199963949386
  0.0834299877290903  0.9165802309998412  0.7499766943216386
  0.0833619124874687  0.9166931118331405  0.0833618971991683
  0.0830251472729344  0.9169451420728407  0.4167647801998839
  0.0832164044552854  0.2500288835583362  0.7500492009282382
  0.0834534851132602  0.2500666054699394  0.0834533794253431
  0.0834487068274328  0.2500641288604655  0.4167667369640853
  0.4175629603639237  0.5824229948109831  0.7488407341896846
  0.4167202003798280  0.5833418098208085  0.0834509779956605
  0.4088678035285582  0.5924424513047981  0.4088668620578275
  0.4167730703825043  0.9165094181053277  0.7498818841528774
  0.4167649852013469  0.9169449785976909  0.0830251599070166
  0.4166643022438592  0.9166958784505255  0.4166646800803377
  0.4170224108700964  0.2488935817517159  0.7513279447923367
  0.4167663203695611  0.2500637634701093  0.0834487475727812
  0.4171908587581683  0.2508245864807890  0.4171906719133105
  0.6653875002927805  0.5023926280808340  0.6653899543185418
  0.6666119017365446  0.5000125084128157  0.0000408477386173
  0.6664539358046824  0.4986689674983040  0.3336372529420544
  0.6667633584306287  0.8335510444125021  0.6667632194771116
  0.6666842044024293  0.8332650362103564  0.0000561325173791
  0.6664671283744568  0.8325951682195196  0.3340257957091808
  0.6663110648900314  0.1671319054731839  0.6663123712602399
  0.6667405941113032  0.1667832986552042  0.9998390435361841
  0.6668367794313355  0.1665502107570802  0.3333519788959336
  0.0000401944425832  0.5000116213518808  0.6666122507307364
  0.9998473562618742  0.4999741743896848  0.9998471875658765
  0.0000401103685022  0.5000576220254231  0.3334658874207150
  0.0000562406599514  0.8332650044933843  0.6666838286986518
  0.0000228607463129  0.8333249433076091  0.0000228602813337
  0.9998526158479208  0.8333333667150313  0.3333505519155153
  0.9998388174300601  0.1667831167863767  0.6667409382450629
  0.0000274928278898  0.1667149472877156  0.0000274898779296
  0.0001480641054670  0.1666630857455971  0.3333553228942705
  0.3336370971258873  0.4986692592146866  0.6664536826578598
  0.3334658372187675  0.5000575651012653  0.0000399255323202
  0.3341552804396244  0.5009419010015463  0.3341551785792802
  0.3340296245056180  0.8325958336974111  0.6664675485932818
  0.3333505673620181  0.8333332892548313  0.9998523164370781
  0.3332285690648362  0.8336622751336833  0.3332285880917212
  0.3333517010033233  0.1665500967596500  0.6668364799490405
  0.3333551247760198  0.1666628948678834  0.0001481263355103
  0.3337299169632928  0.1671067271359448  0.3337297853379013
  0.7503014542721544  0.7503014721955523  0.5835728678733361
  0.7500926559392838  0.7500926553351093  0.9168070109520485
  0.7497226667170551  0.7497226612221510  0.2503160495431658
  0.7499856146619024  0.0834055312723478  0.5833013030790113
  0.7499768775919833  0.0834296783201296  0.9165804511063200
  0.7500490655452765  0.0832162705823478  0.2500286889170980
  0.7488397532583519  0.4175613840443759  0.5824222429124433
  0.7498831043098875  0.4167754938101780  0.9165116558805622
  0.7513279105960180  0.4170226755701449  0.2488935142018960
  0.0834055172251951  0.7499856322336100  0.5833012899297714
  0.0834296884873851  0.7499768645994678  0.9165804383364460
  0.0832162671550023  0.7500490664769544  0.2500286679375492
  0.0830752629110876  0.0830752632522405  0.5833215550323771
  0.0833618945240318  0.0833618843797908  0.9166927186248017
  0.0834535071263574  0.0834534919866741  0.2500667694105800
  0.0834512030662822  0.4167205516689663  0.5833418615978871
  0.0830253201146860  0.4167655390070877  0.9169447879431445
  0.0834490329706270  0.4167663204617327  0.2500635926462635
  0.4175613657451436  0.7488397589088294  0.5824222359645148
  0.4167754832175703  0.7498831046765346  0.9165116448402983
  0.4170226667334447  0.7513278824305587  0.2488934871674431
  0.4167205283868114  0.0834512057001078  0.5833418476052756
  0.4167655403129302  0.0830252910721327  0.9169447947254028
  0.4167663317643289  0.0834490300856316  0.2500636151772255
  0.4088676910003883  0.4088676980522479  0.5924426358979815
  0.4166645728497400  0.4166645621649963  0.9166957857625064
  0.4171910577904754  0.4171910411725435  0.2508240578357572
  0.6653888793146336  0.6653888996906616  0.5023907754307402
  0.6667635076857152  0.6667635044437432  0.8335508607637294
  0.6663121404662107  0.6663121236538458  0.1671324587512331
  0.6666120707984149  0.0000412265614145  0.5000124220333149
  0.6666840879450504  0.0000561783358535  0.8332649985245695
  0.6667407231376714  0.9998391217809086  0.1667830422691452
  0.6664534675889442  0.3336385439554874  0.4986697820142467
  0.6664667699683235  0.3340253911888809  0.8325958115457723
  0.6668367110012667  0.3333517626774523  0.1665500878064563
  0.0000412095160698  0.6666120868607450  0.5000124126460079
  0.0000561758018023  0.6666840754164767  0.8332649944780144
  0.9998391311756123  0.6667407157004206  0.1667830264475256
  0.9998473757639630  0.9998473787204887  0.4999741211290214
  0.0000227169298910  0.0000227275917624  0.8333248599659200
  0.0000276337686742  0.0000276384444717  0.1667148976937156
  0.0000396463564982  0.3334655712996550  0.5000580130660381
  0.9998519545921596  0.3333500037679897  0.8333330978244291
  0.0001482153485384  0.3333553561994691  0.1666627601543809
  0.3336385293029807  0.6664534829081035  0.4986697770460253
  0.3340253844267664  0.6664667717415043  0.8325958087910408
  0.3333517547978886  0.6668366760305275  0.1665500862980167
  0.3334655491704623  0.0000396428927374  0.5000580135518504
  0.3333499902973713  0.9998519335591567  0.8333330941531827
  0.3333553686683572  0.0001482015014531  0.1666627724933321
  0.3341553253027527  0.3341553212221626  0.5009413699978609
  0.3332286827521784  0.3332286623128979  0.8336622171737247
  0.3337298381519673  0.3337298167443663  0.1671063540021933
  0.5880015218146895  0.5880015366412508  0.5880020633342653

  0.00000000E+00  0.00000000E+00  0.00000000E+00
  0.00000000E+00  0.00000000E+00  0.00000000E+00
  0.00000000E+00  0.00000000E+00  0.00000000E+00
  0.00000000E+00  0.00000000E+00  0.00000000E+00
  0.00000000E+00  0.00000000E+00  0.00000000E+00
  0.00000000E+00  0.00000000E+00  0.00000000E+00
  0.00000000E+00  0.00000000E+00  0.00000000E+00
  0.00000000E+00  0.00000000E+00  0.00000000E+00
  0.00000000E+00  0.00000000E+00  0.00000000E+00
  0.00000000E+00  0.00000000E+00  0.00000000E+00
  0.00000000E+00  0.00000000E+00  0.00000000E+00
  0.00000000E+00  0.00000000E+00  0.00000000E+00
  0.00000000E+00  0.00000000E+00  0.00000000E+00
  0.00000000E+00  0.00000000E+00  0.00000000E+00
  0.00000000E+00  0.00000000E+00  0.00000000E+00
  0.00000000E+00  0.00000000E+00  0.00000000E+00
  0.00000000E+00  0.00000000E+00  0.00000000E+00
  0.00000000E+00  0.00000000E+00  0.00000000E+00
  0.00000000E+00  0.00000000E+00  0.00000000E+00
  0.00000000E+00  0.00000000E+00  0.00000000E+00
  0.00000000E+00  0.00000000E+00  0.00000000E+00
  0.00000000E+00  0.00000000E+00  0.00000000E+00
  0.00000000E+00  0.00000000E+00  0.00000000E+00
  0.00000000E+00  0.00000000E+00  0.00000000E+00
  0.00000000E+00  0.00000000E+00  0.00000000E+00
  0.00000000E+00  0.00000000E+00  0.00000000E+00
  0.00000000E+00  0.00000000E+00  0.00000000E+00
  0.00000000E+00  0.00000000E+00  0.00000000E+00
  0.00000000E+00  0.00000000E+00  0.00000000E+00
  0.00000000E+00  0.00000000E+00  0.00000000E+00
  0.00000000E+00  0.00000000E+00  0.00000000E+00
  0.00000000E+00  0.00000000E+00  0.00000000E+00
  0.00000000E+00  0.00000000E+00  0.00000000E+00
  0.00000000E+00  0.00000000E+00  0.00000000E+00
  0.00000000E+00  0.00000000E+00  0.00000000E+00
  0.00000000E+00  0.00000000E+00  0.00000000E+00
  0.00000000E+00  0.00000000E+00  0.00000000E+00
  0.00000000E+00  0.00000000E+00  0.00000000E+00
  0.00000000E+00  0.00000000E+00  0.00000000E+00
  0.00000000E+00  0.00000000E+00  0.00000000E+00
  0.00000000E+00  0.00000000E+00  0.00000000E+00
  0.00000000E+00  0.00000000E+00  0.00000000E+00
  0.00000000E+00  0.00000000E+00  0.00000000E+00
  0.00000000E+00  0.00000000E+00  0.00000000E+00
  0.00000000E+00  0.00000000E+00  0.00000000E+00
  0.00000000E+00  0.00000000E+00  0.00000000E+00
  0.00000000E+00  0.00000000E+00  0.00000000E+00
  0.00000000E+00  0.00000000E+00  0.00000000E+00
  0.00000000E+00  0.00000000E+00  0.00000000E+00
  0.00000000E+00  0.00000000E+00  0.00000000E+00
  0.00000000E+00  0.00000000E+00  0.00000000E+00
  0.00000000E+00  0.00000000E+00  0.00000000E+00
  0.00000000E+00  0.00000000E+00  0.00000000E+00
  0.00000000E+00  0.00000000E+00  0.00000000E+00
  0.00000000E+00  0.00000000E+00  0.00000000E+00
  0.00000000E+00  0.00000000E+00  0.00000000E+00
  0.00000000E+00  0.00000000E+00  0.00000000E+00
  0.00000000E+00  0.00000000E+00  0.00000000E+00
  0.00000000E+00  0.00000000E+00  0.00000000E+00
  0.00000000E+00  0.00000000E+00  0.00000000E+00
  0.00000000E+00  0.00000000E+00  0.00000000E+00
  0.00000000E+00  0.00000000E+00  0.00000000E+00
  0.00000000E+00  0.00000000E+00  0.00000000E+00
  0.00000000E+00  0.00000000E+00  0.00000000E+00
  0.00000000E+00  0.00000000E+00  0.00000000E+00
  0.00000000E+00  0.00000000E+00  0.00000000E+00
  0.00000000E+00  0.00000000E+00  0.00000000E+00
  0.00000000E+00  0.00000000E+00  0.00000000E+00
  0.00000000E+00  0.00000000E+00  0.00000000E+00
  0.00000000E+00  0.00000000E+00  0.00000000E+00
  0.00000000E+00  0.00000000E+00  0.00000000E+00
  0.00000000E+00  0.00000000E+00  0.00000000E+00
  0.00000000E+00  0.00000000E+00  0.00000000E+00
  0.00000000E+00  0.00000000E+00  0.00000000E+00
  0.00000000E+00  0.00000000E+00  0.00000000E+00
  0.00000000E+00  0.00000000E+00  0.00000000E+00
  0.00000000E+00  0.00000000E+00  0.00000000E+00
  0.00000000E+00  0.00000000E+00  0.00000000E+00
  0.00000000E+00  0.00000000E+00  0.00000000E+00
  0.00000000E+00  0.00000000E+00  0.00000000E+00
  0.00000000E+00  0.00000000E+00  0.00000000E+00
  0.00000000E+00  0.00000000E+00  0.00000000E+00
  0.00000000E+00  0.00000000E+00  0.00000000E+00
  0.00000000E+00  0.00000000E+00  0.00000000E+00
  0.00000000E+00  0.00000000E+00  0.00000000E+00
  0.00000000E+00  0.00000000E+00  0.00000000E+00
  0.00000000E+00  0.00000000E+00  0.00000000E+00
  0.00000000E+00  0.00000000E+00  0.00000000E+00
  0.00000000E+00  0.00000000E+00  0.00000000E+00
  0.00000000E+00  0.00000000E+00  0.00000000E+00
  0.00000000E+00  0.00000000E+00  0.00000000E+00
  0.00000000E+00  0.00000000E+00  0.00000000E+00
  0.00000000E+00  0.00000000E+00  0.00000000E+00
  0.00000000E+00  0.00000000E+00  0.00000000E+00
  0.00000000E+00  0.00000000E+00  0.00000000E+00
  0.00000000E+00  0.00000000E+00  0.00000000E+00
  0.00000000E+00  0.00000000E+00  0.00000000E+00
  0.00000000E+00  0.00000000E+00  0.00000000E+00
  0.00000000E+00  0.00000000E+00  0.00000000E+00
  0.00000000E+00  0.00000000E+00  0.00000000E+00
  0.00000000E+00  0.00000000E+00  0.00000000E+00
  0.00000000E+00  0.00000000E+00  0.00000000E+00
  0.00000000E+00  0.00000000E+00  0.00000000E+00
  0.00000000E+00  0.00000000E+00  0.00000000E+00
  0.00000000E+00  0.00000000E+00  0.00000000E+00
  0.00000000E+00  0.00000000E+00  0.00000000E+00
  0.00000000E+00  0.00000000E+00  0.00000000E+00
  0.00000000E+00  0.00000000E+00  0.00000000E+00
  0.00000000E+00  0.00000000E+00  0.00000000E+00
  0.00000000E+00  0.00000000E+00  0.00000000E+00
  0.00000000E+00  0.00000000E+00  0.00000000E+00
  0.00000000E+00  0.00000000E+00  0.00000000E+00
  0.00000000E+00  0.00000000E+00  0.00000000E+00
  0.00000000E+00  0.00000000E+00  0.00000000E+00
  0.00000000E+00  0.00000000E+00  0.00000000E+00
  0.00000000E+00  0.00000000E+00  0.00000000E+00
  0.00000000E+00  0.00000000E+00  0.00000000E+00
  0.00000000E+00  0.00000000E+00  0.00000000E+00
  0.00000000E+00  0.00000000E+00  0.00000000E+00
  0.00000000E+00  0.00000000E+00  0.00000000E+00
  0.00000000E+00  0.00000000E+00  0.00000000E+00
  0.00000000E+00  0.00000000E+00  0.00000000E+00
  0.00000000E+00  0.00000000E+00  0.00000000E+00
  0.00000000E+00  0.00000000E+00  0.00000000E+00
  0.00000000E+00  0.00000000E+00  0.00000000E+00
  0.00000000E+00  0.00000000E+00  0.00000000E+00
  0.00000000E+00  0.00000000E+00  0.00000000E+00
  0.00000000E+00  0.00000000E+00  0.00000000E+00
  0.00000000E+00  0.00000000E+00  0.00000000E+00
  0.00000000E+00  0.00000000E+00  0.00000000E+00
  0.00000000E+00  0.00000000E+00  0.00000000E+00
  0.00000000E+00  0.00000000E+00  0.00000000E+00
  0.00000000E+00  0.00000000E+00  0.00000000E+00
  0.00000000E+00  0.00000000E+00  0.00000000E+00
  0.00000000E+00  0.00000000E+00  0.00000000E+00
  0.00000000E+00  0.00000000E+00  0.00000000E+00
  0.00000000E+00  0.00000000E+00  0.00000000E+00
  0.00000000E+00  0.00000000E+00  0.00000000E+00
  0.00000000E+00  0.00000000E+00  0.00000000E+00
  0.00000000E+00  0.00000000E+00  0.00000000E+00
  0.00000000E+00  0.00000000E+00  0.00000000E+00
  0.00000000E+00  0.00000000E+00  0.00000000E+00
  0.00000000E+00  0.00000000E+00  0.00000000E+00
  0.00000000E+00  0.00000000E+00  0.00000000E+00
  0.00000000E+00  0.00000000E+00  0.00000000E+00
  0.00000000E+00  0.00000000E+00  0.00000000E+00
  0.00000000E+00  0.00000000E+00  0.00000000E+00
  0.00000000E+00  0.00000000E+00  0.00000000E+00
  0.00000000E+00  0.00000000E+00  0.00000000E+00
  0.00000000E+00  0.00000000E+00  0.00000000E+00
  0.00000000E+00  0.00000000E+00  0.00000000E+00
  0.00000000E+00  0.00000000E+00  0.00000000E+00
  0.00000000E+00  0.00000000E+00  0.00000000E+00
  0.00000000E+00  0.00000000E+00  0.00000000E+00
  0.00000000E+00  0.00000000E+00  0.00000000E+00
  0.00000000E+00  0.00000000E+00  0.00000000E+00
  0.00000000E+00  0.00000000E+00  0.00000000E+00
  0.00000000E+00  0.00000000E+00  0.00000000E+00
  0.00000000E+00  0.00000000E+00  0.00000000E+00
  0.00000000E+00  0.00000000E+00  0.00000000E+00
  0.00000000E+00  0.00000000E+00  0.00000000E+00
  0.00000000E+00  0.00000000E+00  0.00000000E+00
  0.00000000E+00  0.00000000E+00  0.00000000E+00
  0.00000000E+00  0.00000000E+00  0.00000000E+00
  0.00000000E+00  0.00000000E+00  0.00000000E+00
  0.00000000E+00  0.00000000E+00  0.00000000E+00
  0.00000000E+00  0.00000000E+00  0.00000000E+00
  0.00000000E+00  0.00000000E+00  0.00000000E+00
  0.00000000E+00  0.00000000E+00  0.00000000E+00
  0.00000000E+00  0.00000000E+00  0.00000000E+00
  0.00000000E+00  0.00000000E+00  0.00000000E+00
  0.00000000E+00  0.00000000E+00  0.00000000E+00
  0.00000000E+00  0.00000000E+00  0.00000000E+00
  0.00000000E+00  0.00000000E+00  0.00000000E+00
  0.00000000E+00  0.00000000E+00  0.00000000E+00
  0.00000000E+00  0.00000000E+00  0.00000000E+00
  0.00000000E+00  0.00000000E+00  0.00000000E+00
  0.00000000E+00  0.00000000E+00  0.00000000E+00
  0.00000000E+00  0.00000000E+00  0.00000000E+00
  0.00000000E+00  0.00000000E+00  0.00000000E+00
  0.00000000E+00  0.00000000E+00  0.00000000E+00
  0.00000000E+00  0.00000000E+00  0.00000000E+00
  0.00000000E+00  0.00000000E+00  0.00000000E+00
  0.00000000E+00  0.00000000E+00  0.00000000E+00
  0.00000000E+00  0.00000000E+00  0.00000000E+00
  0.00000000E+00  0.00000000E+00  0.00000000E+00
  0.00000000E+00  0.00000000E+00  0.00000000E+00
  0.00000000E+00  0.00000000E+00  0.00000000E+00
  0.00000000E+00  0.00000000E+00  0.00000000E+00
  0.00000000E+00  0.00000000E+00  0.00000000E+00
  0.00000000E+00  0.00000000E+00  0.00000000E+00
  0.00000000E+00  0.00000000E+00  0.00000000E+00
  0.00000000E+00  0.00000000E+00  0.00000000E+00
  0.00000000E+00  0.00000000E+00  0.00000000E+00
  0.00000000E+00  0.00000000E+00  0.00000000E+00
  0.00000000E+00  0.00000000E+00  0.00000000E+00
  0.00000000E+00  0.00000000E+00  0.00000000E+00
  0.00000000E+00  0.00000000E+00  0.00000000E+00
  0.00000000E+00  0.00000000E+00  0.00000000E+00
  0.00000000E+00  0.00000000E+00  0.00000000E+00
  0.00000000E+00  0.00000000E+00  0.00000000E+00
  0.00000000E+00  0.00000000E+00  0.00000000E+00
  0.00000000E+00  0.00000000E+00  0.00000000E+00
  0.00000000E+00  0.00000000E+00  0.00000000E+00
  0.00000000E+00  0.00000000E+00  0.00000000E+00
  0.00000000E+00  0.00000000E+00  0.00000000E+00
  0.00000000E+00  0.00000000E+00  0.00000000E+00
  0.00000000E+00  0.00000000E+00  0.00000000E+00
  0.00000000E+00  0.00000000E+00  0.00000000E+00
  0.00000000E+00  0.00000000E+00  0.00000000E+00
  0.00000000E+00  0.00000000E+00  0.00000000E+00
  0.00000000E+00  0.00000000E+00  0.00000000E+00
  0.00000000E+00  0.00000000E+00  0.00000000E+00
  0.00000000E+00  0.00000000E+00  0.00000000E+00
  0.00000000E+00  0.00000000E+00  0.00000000E+00
