This file is generated by VASPKIT code  
   1.0000000000000000     
    10.6145257950000005    0.0000000000000000    0.0000000000000000
     0.0000000000000000   10.6145257950000005    0.0000000000000000
     0.0000000000000000    0.0000000000000000   10.6145257950000005
   C    N 
   214     1
Direct
  0.5834265466579236  0.5834265078201094  0.9167115576208241
  0.5829240394194150  0.5829239737380557  0.2506568516409076
  0.5834264462555027  0.9167116821654969  0.5834265172139140
  0.5834099912272434  0.9169325729778067  0.9169326321796513
  0.5832092744040505  0.9162256671407430  0.2503921915824967
  0.5829239622583121  0.2506567292076177  0.5829240337252537
  0.5832092437327147  0.2503922006342602  0.9162256796399509
  0.5827447456570924  0.2491707298151434  0.2491707756221507
  0.9167116845111871  0.5834264336831808  0.5834265321367693
  0.9169326955318259  0.5834099819048293  0.9169326352047351
  0.9162256929827897  0.5832092231165198  0.2503922489836324
  0.9169326179525998  0.9169326330658542  0.5834099488932987
  0.9167914530884290  0.9167914313822971  0.9167914987074907
  0.9165648277751214  0.9165648161383874  0.2501212627320157
  0.9162255590831736  0.2503922375938613  0.5832093265825814
  0.9165648676072600  0.2501212576465633  0.9165649389950206
  0.9164779765104921  0.2500050096209492  0.2500050073740910
  0.2506567709153131  0.5829240505916463  0.5829239805709853
  0.2503923456107904  0.5832092728519523  0.9162255714241211
  0.2491708235036004  0.5827447344773333  0.2491707959712505
  0.2503921917051743  0.9162256195265637  0.5832091611950058
  0.2501212954276034  0.9165648687159678  0.9165648775289360
  0.2500049552971197  0.9164780385065527  0.2500049087816077
  0.2491706596307325  0.2491707322915861  0.5827448547565123
  0.2500049753095119  0.2500049564111683  0.9164780127433449
  0.2499602494815577  0.2499602929604578  0.2499603292884876
  0.5000824607873350  0.5000826065121484  0.8328925080110741
  0.4998320728343095  0.4998319646888927  0.1669920124948899
  0.5000823825292808  0.8328927337980259  0.5000825342091485
  0.5002757623382552  0.8338327643678670  0.8338325346968032
  0.4998856903325888  0.8333303705755133  0.1665989850699223
  0.4998319738041315  0.1669919376233796  0.4998320541766499
  0.4998855696391601  0.1665989577619102  0.8333304167936660
  0.4999817173278964  0.1661778666934365  0.1661777963659061
  0.8328925228248243  0.5000825758331302  0.5000825702887889
  0.8338325643623952  0.5002758656024883  0.8338325822060596
  0.8333304701266215  0.4998855681153573  0.1665990114481722
  0.8338326293135994  0.8338325242513841  0.5002758657232357
  0.8335190978320374  0.8335189852476598  0.8335191171199039
  0.8331970237054085  0.8331969575313051  0.1669772198996961
  0.8333304508551148  0.1665989609185932  0.4998856446188776
  0.8331970442634576  0.1669772180935500  0.8331970472892460
  0.8331539650593165  0.1666972598456323  0.1666972233884543
  0.1669919839544405  0.4998319953773397  0.4998319896145178
  0.1665990707883514  0.4998855297086500  0.8333304115504551
  0.1661779511748379  0.4999816817582021  0.1661778606572291
  0.1665988518284085  0.8333305638463816  0.4998855765820708
  0.1669771456596178  0.8331971410371176  0.8331970764088313
  0.1666973467641104  0.8331539189035139  0.1666972429892582
  0.1661775909749472  0.1661778645947928  0.4999816505717714
  0.1666973081679472  0.1666973098952295  0.8331540366397538
  0.1666325064331265  0.1666324070071618  0.1666324525847133
  0.5837367617317604  0.7512646120834726  0.7512645639708936
  0.5833216902393726  0.7499137687373303  0.0835275833181260
  0.5826551352513313  0.7483623297564125  0.4181978750862308
  0.5833216112114452  0.0835275666380596  0.7499139008401370
  0.5832302398176462  0.0831232411353445  0.0831232436952047
  0.5831855890605646  0.0833695748649921  0.4166914933138078
  0.5826550625334130  0.4181979889909344  0.7483621860983783
  0.5831856451196674  0.4166914802180717  0.0833695352154187
  0.5862907836798879  0.4111987104494539  0.4111987701499658
  0.9170835222043812  0.7502336144821543  0.7502336820229003
  0.9166411867258418  0.7499877836042089  0.0835870003088782
  0.9165418352661410  0.7499351865508886  0.4168931910605534
  0.9166410551855390  0.0835870120894173  0.7499878038821263
  0.9166086630491548  0.0833778615632736  0.0833778946330030
  0.9166469769935971  0.0832013664075371  0.4167294993383702
  0.9165418578210592  0.4168931768377715  0.7499352916728785
  0.9166470448739523  0.4167294060843074  0.0832015245807981
  0.9163730746767920  0.4166974982973023  0.4166974951401691
  0.2504461501453993  0.7496759754431376  0.7496758326209643
  0.2501091507534631  0.7498596199857671  0.0832716251830115
  0.2497714718917733  0.7501189293688560  0.4169411060252081
  0.2501090103020365  0.0832718155577826  0.7498597728153983
  0.2499825375272935  0.0832798819639382  0.0832799039708955
  0.2499016007125354  0.0831235133248502  0.4165853037205784
  0.2497716027142571  0.4169412043260100  0.7501187304334097
  0.2499018274878351  0.4165853875164375  0.0831234075370091
  0.2502005286008343  0.4165480166795160  0.4165480635350118
  0.5040449114353821  0.6664838971616948  0.6664838093524230
  0.5000342173343283  0.6665798399814821  0.0000699462260900
  0.4992050325581662  0.6649215155857073  0.3345440883396575
  0.5000340403597259  0.0000700552791705  0.6665798859806034
  0.5000275879330106 -0.0000205270949870 -0.0000205583260936
  0.4999351160124481 -0.0001971743766019  0.3334397499282560
  0.4992049275085880  0.3345439410481457  0.6649214463718330
  0.4999351988314175  0.3334397658145671 -0.0001972561666948
  0.5002428829746224  0.3333725368154104  0.3333726731819207
  0.8339937487582678  0.6671119830606144  0.6671121500012647
  0.8334108943216622  0.6667321237318503  0.0002900166638946
  0.8323700437718147  0.6664327341875680  0.3342508131507600
  0.8334108602621809  0.0002899838532337  0.6667321631857616
  0.8333253643598252  0.0000985511085836  0.0000986375550036
  0.8331865515022173 -0.0001093795225578  0.3333964894085271
  0.8323700112419752  0.3342507905627639  0.6664328372325646
  0.8331865500739818  0.3333963540352605 -0.0001092487103528
  0.8330566541289761  0.3333650093064921  0.3333649406090900
  0.1671242451816946  0.6663090520554708  0.6663089365716693
  0.1668853388828835  0.6666275545981234 -0.0001941128824519
  0.1666738431900279  0.6664279901619682  0.3332911243636821
  0.1668849559353228 -0.0001939636109738  0.6666274328567694
  0.1667001060027725 -0.0000554612966146 -0.0000554537076372
  0.1666130348881181 -0.0001525666581790  0.3332795369665387
  0.1666737922518622  0.3332911261785655  0.6664279262116887
  0.1666131377791113  0.3332794575292259 -0.0001525789862012
  0.1666692041646394  0.3333839119071562  0.3333840109051394
  0.7512644213981026  0.5837368521518063  0.7512644945457787
  0.7499138811510790  0.5833215588659008  0.0835276008023766
  0.7483621766114045  0.5826551893331116  0.4181979342492239
  0.7502336819427916  0.9170834443773632  0.7502336974417679
  0.7499879018970886  0.9166410794593273  0.0835870305656657
  0.7499353038740603  0.9165418220219395  0.4168931711805795
  0.7496758810581357  0.2504462071165814  0.7496758951236180
  0.7498596828236426  0.2501090378826793  0.0832716482765938
  0.7501187732330744  0.2497716005504992  0.4169411402158740
  0.0835276656505811  0.5833215457337254  0.7499138388437591
  0.0831233170940462  0.5832302697412750  0.0831232415226820
  0.0833695609469306  0.5831855158260283  0.4166915478952538
  0.0835868929042763  0.9166410287391651  0.7499879310708124
  0.0833779946729389  0.9166085273513853  0.0833778802335720
  0.0832013261007310  0.9166470888206770  0.4167294279651926
  0.0832716693923318  0.2501090222460060  0.7498596032065855
  0.0832800271555594  0.2499824211838104  0.0832799170007552
  0.0831234155186443  0.2499017490868643  0.4165854019153601
  0.4181978676737533  0.5826552610811315  0.7483621898166799
  0.4166915998919971  0.5831855293216719  0.0833695297748427
  0.4111986918313933  0.5862910181187858  0.4111987689801387
  0.4168931468128682  0.9165419637776838  0.7499352714652326
  0.4167294856625337  0.9166469487066775  0.0832015007894747
  0.4166974642509723  0.9163732202483681  0.4166974978873250
  0.4169411698105655  0.2497714943964999  0.7501187853814638
  0.4165854865230660  0.2499017478336742  0.0831233843760400
  0.4165479981265403  0.2502004652624129  0.4165480223681639
  0.6664836054279402  0.5040450651543361  0.6664836460332036
  0.6665799656634609  0.5000340562568903  0.0000699405684210
  0.6649214731633601  0.4992049487893878  0.3345440600194493
  0.6671120460288086  0.8339938268039417  0.6671120467128034
  0.6667322183871034  0.8334107976158986  0.0002900190782952
  0.6664328171726799  0.8323701366670684  0.3342507284452292
  0.6663089224757405  0.1671242196399174  0.6663090201693032
  0.6666275778694528  0.1668851912046674 -0.0001940272310249
  0.6664278603834236  0.1666737905863769  0.3332910533885522
  0.0000700129909312  0.5000340630537037  0.6665799175419540
 -0.0000204184692113  0.5000275616364686 -0.0000205191510691
 -0.0001971943990797  0.4999351154721465  0.3334397407533987
  0.0002900065990657  0.8334107976760665  0.6667321787349423
  0.0000986888852029  0.8333252749701345  0.0000986073067106
 -0.0001093907258713  0.8331864584143074  0.3333964124759476
 -0.0001943268954148  0.1668852837873490  0.6666274924397807
 -0.0000553296039319  0.1667000001925488 -0.0000554058544821
 -0.0001525532241089  0.1666129937282410  0.3332796034326194
  0.3345440255499122  0.4992050817194822  0.6649212521454682
  0.3334398109221728  0.4999351270890225 -0.0001972453576667
  0.3333726261164305  0.5002428756369052  0.3333726992462566
  0.3342508629818620  0.8323701109842412  0.6664326130990743
  0.3333964724386217  0.8331864698820948 -0.0001093454203072
  0.3333649455806567  0.8330568519242832  0.3333648966779137
  0.3332911000734443  0.1666737839695188  0.6664279627555060
  0.3332795495291226  0.1666130269286963 -0.0001526077732920
  0.3333839354125915  0.1666692742011245  0.3333838850433958
  0.7512645538504911  0.7512645045539200  0.5837368370247515
  0.7502336714797400  0.7502335940542287  0.9170834971836537
  0.7496759369597538  0.7496757876991152  0.2504462324118721
  0.7499138246674054  0.0835275611107150  0.5833215860618477
  0.7499879031913993  0.0835869893522057  0.9166411641527732
  0.7498596630899124  0.0832716132082701  0.2501090946229456
  0.7483621253733380  0.4181979808512989  0.5826551866435303
  0.7499353809695549  0.4168931588080458  0.9165419317738570
  0.7501188779004259  0.4169411712071700  0.2497716007257328
  0.0835274280494814  0.7499137835355436  0.5833215407546405
  0.0835870416213512  0.7499877799181953  0.9166411791492893
  0.0832716089752405  0.7498595910598321  0.2501090357364552
  0.0831233007593199  0.0831233767522135  0.5832304158209486
  0.0833778470646539  0.0833778578486377  0.9166085703762742
  0.0832798588968201  0.0832798708408438  0.2499824706359050
  0.0833694645073239  0.4166915234532312  0.5831855338675362
  0.0832015450284391  0.4167293683499690  0.9166470214191982
  0.0831234361226268  0.4165854075176290  0.2499017814429885
  0.4181978932214969  0.7483621408411184  0.5826552919110236
  0.4168932839522520  0.7499352958951564  0.9165418547976403
  0.4169412375220989  0.7501188124824228  0.2497715744724319
  0.4166914650045749  0.0833695594070381  0.5831855147907364
  0.4167294902803698  0.0832015353842413  0.9166470701602386
  0.4165854623811237  0.0831235060153876  0.2499016421588289
  0.4111987078130867  0.4111986515623149  0.5862908484247566
  0.4166976119538382  0.4166975799683410  0.9163730263259786
  0.4165480865675704  0.4165480326539487  0.2502006361757294
  0.6664836449726101  0.6664839209475952  0.5040448500444341
  0.6671120459979101  0.6671122594355683  0.8339936808911257
  0.6663090184983677  0.6663088880470470  0.1671242638865637
  0.6665798437660748  0.0000699508830535  0.5000340064484914
  0.6667321773127759  0.0002899587314548  0.8334109344365609
  0.6666275337128503 -0.0001941314089488  0.1668851664572270
  0.6649213451949448  0.3345440676572787  0.4992050543181724
  0.6664328355254956  0.3342508492660074  0.8323700808324935
  0.6664279861893518  0.3332910449313843  0.1666738144970648
  0.0000699526036496  0.6665797745450255  0.5000341240401824
  0.0002901124527105  0.6667321328465626  0.8334108772023916
 -0.0001940397625609  0.6666274918098112  0.1668851714299611
 -0.0000208008781721 -0.0000205897057534  0.5000274743350636
  0.0000985703555127  0.0000985472394677  0.8333253168816858
 -0.0000553719896261 -0.0000554970116660  0.1667000254349082
 -0.0001972188957467  0.3334396935890546  0.4999351348734895
 -0.0001093235727153  0.3333964083685864  0.8331865645761202
 -0.0001524898687997  0.3332795579255700  0.1666130300316618
  0.3345440131662638  0.6649216089817293  0.4992050129522909
  0.3342507528171785  0.6664330603517489  0.8323699736603147
  0.3332911579897040  0.6664278724714934  0.1666737952341469
  0.3334396040640550 -0.0001970867550103  0.4999350295860966
  0.3333964036961033 -0.0001091999834527  0.8331866052090647
  0.3332796084958891 -0.0001525553273742  0.1666130291383154
  0.3333726104536127  0.3333725779887058  0.5002428646402534
  0.3333649752425408  0.3333649113938815  0.8330566090449070
  0.3333839799538342  0.3333839630325235  0.1666693199766960
  0.5916656585189675  0.5916658842638145  0.5916658337963957

  0.00000000E+00  0.00000000E+00  0.00000000E+00
  0.00000000E+00  0.00000000E+00  0.00000000E+00
  0.00000000E+00  0.00000000E+00  0.00000000E+00
  0.00000000E+00  0.00000000E+00  0.00000000E+00
  0.00000000E+00  0.00000000E+00  0.00000000E+00
  0.00000000E+00  0.00000000E+00  0.00000000E+00
  0.00000000E+00  0.00000000E+00  0.00000000E+00
  0.00000000E+00  0.00000000E+00  0.00000000E+00
  0.00000000E+00  0.00000000E+00  0.00000000E+00
  0.00000000E+00  0.00000000E+00  0.00000000E+00
  0.00000000E+00  0.00000000E+00  0.00000000E+00
  0.00000000E+00  0.00000000E+00  0.00000000E+00
  0.00000000E+00  0.00000000E+00  0.00000000E+00
  0.00000000E+00  0.00000000E+00  0.00000000E+00
  0.00000000E+00  0.00000000E+00  0.00000000E+00
  0.00000000E+00  0.00000000E+00  0.00000000E+00
  0.00000000E+00  0.00000000E+00  0.00000000E+00
  0.00000000E+00  0.00000000E+00  0.00000000E+00
  0.00000000E+00  0.00000000E+00  0.00000000E+00
  0.00000000E+00  0.00000000E+00  0.00000000E+00
  0.00000000E+00  0.00000000E+00  0.00000000E+00
  0.00000000E+00  0.00000000E+00  0.00000000E+00
  0.00000000E+00  0.00000000E+00  0.00000000E+00
  0.00000000E+00  0.00000000E+00  0.00000000E+00
  0.00000000E+00  0.00000000E+00  0.00000000E+00
  0.00000000E+00  0.00000000E+00  0.00000000E+00
  0.00000000E+00  0.00000000E+00  0.00000000E+00
  0.00000000E+00  0.00000000E+00  0.00000000E+00
  0.00000000E+00  0.00000000E+00  0.00000000E+00
  0.00000000E+00  0.00000000E+00  0.00000000E+00
  0.00000000E+00  0.00000000E+00  0.00000000E+00
  0.00000000E+00  0.00000000E+00  0.00000000E+00
  0.00000000E+00  0.00000000E+00  0.00000000E+00
  0.00000000E+00  0.00000000E+00  0.00000000E+00
  0.00000000E+00  0.00000000E+00  0.00000000E+00
  0.00000000E+00  0.00000000E+00  0.00000000E+00
  0.00000000E+00  0.00000000E+00  0.00000000E+00
  0.00000000E+00  0.00000000E+00  0.00000000E+00
  0.00000000E+00  0.00000000E+00  0.00000000E+00
  0.00000000E+00  0.00000000E+00  0.00000000E+00
  0.00000000E+00  0.00000000E+00  0.00000000E+00
  0.00000000E+00  0.00000000E+00  0.00000000E+00
  0.00000000E+00  0.00000000E+00  0.00000000E+00
  0.00000000E+00  0.00000000E+00  0.00000000E+00
  0.00000000E+00  0.00000000E+00  0.00000000E+00
  0.00000000E+00  0.00000000E+00  0.00000000E+00
  0.00000000E+00  0.00000000E+00  0.00000000E+00
  0.00000000E+00  0.00000000E+00  0.00000000E+00
  0.00000000E+00  0.00000000E+00  0.00000000E+00
  0.00000000E+00  0.00000000E+00  0.00000000E+00
  0.00000000E+00  0.00000000E+00  0.00000000E+00
  0.00000000E+00  0.00000000E+00  0.00000000E+00
  0.00000000E+00  0.00000000E+00  0.00000000E+00
  0.00000000E+00  0.00000000E+00  0.00000000E+00
  0.00000000E+00  0.00000000E+00  0.00000000E+00
  0.00000000E+00  0.00000000E+00  0.00000000E+00
  0.00000000E+00  0.00000000E+00  0.00000000E+00
  0.00000000E+00  0.00000000E+00  0.00000000E+00
  0.00000000E+00  0.00000000E+00  0.00000000E+00
  0.00000000E+00  0.00000000E+00  0.00000000E+00
  0.00000000E+00  0.00000000E+00  0.00000000E+00
  0.00000000E+00  0.00000000E+00  0.00000000E+00
  0.00000000E+00  0.00000000E+00  0.00000000E+00
  0.00000000E+00  0.00000000E+00  0.00000000E+00
  0.00000000E+00  0.00000000E+00  0.00000000E+00
  0.00000000E+00  0.00000000E+00  0.00000000E+00
  0.00000000E+00  0.00000000E+00  0.00000000E+00
  0.00000000E+00  0.00000000E+00  0.00000000E+00
  0.00000000E+00  0.00000000E+00  0.00000000E+00
  0.00000000E+00  0.00000000E+00  0.00000000E+00
  0.00000000E+00  0.00000000E+00  0.00000000E+00
  0.00000000E+00  0.00000000E+00  0.00000000E+00
  0.00000000E+00  0.00000000E+00  0.00000000E+00
  0.00000000E+00  0.00000000E+00  0.00000000E+00
  0.00000000E+00  0.00000000E+00  0.00000000E+00
  0.00000000E+00  0.00000000E+00  0.00000000E+00
  0.00000000E+00  0.00000000E+00  0.00000000E+00
  0.00000000E+00  0.00000000E+00  0.00000000E+00
  0.00000000E+00  0.00000000E+00  0.00000000E+00
  0.00000000E+00  0.00000000E+00  0.00000000E+00
  0.00000000E+00  0.00000000E+00  0.00000000E+00
  0.00000000E+00  0.00000000E+00  0.00000000E+00
  0.00000000E+00  0.00000000E+00  0.00000000E+00
  0.00000000E+00  0.00000000E+00  0.00000000E+00
  0.00000000E+00  0.00000000E+00  0.00000000E+00
  0.00000000E+00  0.00000000E+00  0.00000000E+00
  0.00000000E+00  0.00000000E+00  0.00000000E+00
  0.00000000E+00  0.00000000E+00  0.00000000E+00
  0.00000000E+00  0.00000000E+00  0.00000000E+00
  0.00000000E+00  0.00000000E+00  0.00000000E+00
  0.00000000E+00  0.00000000E+00  0.00000000E+00
  0.00000000E+00  0.00000000E+00  0.00000000E+00
  0.00000000E+00  0.00000000E+00  0.00000000E+00
  0.00000000E+00  0.00000000E+00  0.00000000E+00
  0.00000000E+00  0.00000000E+00  0.00000000E+00
  0.00000000E+00  0.00000000E+00  0.00000000E+00
  0.00000000E+00  0.00000000E+00  0.00000000E+00
  0.00000000E+00  0.00000000E+00  0.00000000E+00
  0.00000000E+00  0.00000000E+00  0.00000000E+00
  0.00000000E+00  0.00000000E+00  0.00000000E+00
  0.00000000E+00  0.00000000E+00  0.00000000E+00
  0.00000000E+00  0.00000000E+00  0.00000000E+00
  0.00000000E+00  0.00000000E+00  0.00000000E+00
  0.00000000E+00  0.00000000E+00  0.00000000E+00
  0.00000000E+00  0.00000000E+00  0.00000000E+00
  0.00000000E+00  0.00000000E+00  0.00000000E+00
  0.00000000E+00  0.00000000E+00  0.00000000E+00
  0.00000000E+00  0.00000000E+00  0.00000000E+00
  0.00000000E+00  0.00000000E+00  0.00000000E+00
  0.00000000E+00  0.00000000E+00  0.00000000E+00
  0.00000000E+00  0.00000000E+00  0.00000000E+00
  0.00000000E+00  0.00000000E+00  0.00000000E+00
  0.00000000E+00  0.00000000E+00  0.00000000E+00
  0.00000000E+00  0.00000000E+00  0.00000000E+00
  0.00000000E+00  0.00000000E+00  0.00000000E+00
  0.00000000E+00  0.00000000E+00  0.00000000E+00
  0.00000000E+00  0.00000000E+00  0.00000000E+00
  0.00000000E+00  0.00000000E+00  0.00000000E+00
  0.00000000E+00  0.00000000E+00  0.00000000E+00
  0.00000000E+00  0.00000000E+00  0.00000000E+00
  0.00000000E+00  0.00000000E+00  0.00000000E+00
  0.00000000E+00  0.00000000E+00  0.00000000E+00
  0.00000000E+00  0.00000000E+00  0.00000000E+00
  0.00000000E+00  0.00000000E+00  0.00000000E+00
  0.00000000E+00  0.00000000E+00  0.00000000E+00
  0.00000000E+00  0.00000000E+00  0.00000000E+00
  0.00000000E+00  0.00000000E+00  0.00000000E+00
  0.00000000E+00  0.00000000E+00  0.00000000E+00
  0.00000000E+00  0.00000000E+00  0.00000000E+00
  0.00000000E+00  0.00000000E+00  0.00000000E+00
  0.00000000E+00  0.00000000E+00  0.00000000E+00
  0.00000000E+00  0.00000000E+00  0.00000000E+00
  0.00000000E+00  0.00000000E+00  0.00000000E+00
  0.00000000E+00  0.00000000E+00  0.00000000E+00
  0.00000000E+00  0.00000000E+00  0.00000000E+00
  0.00000000E+00  0.00000000E+00  0.00000000E+00
  0.00000000E+00  0.00000000E+00  0.00000000E+00
  0.00000000E+00  0.00000000E+00  0.00000000E+00
  0.00000000E+00  0.00000000E+00  0.00000000E+00
  0.00000000E+00  0.00000000E+00  0.00000000E+00
  0.00000000E+00  0.00000000E+00  0.00000000E+00
  0.00000000E+00  0.00000000E+00  0.00000000E+00
  0.00000000E+00  0.00000000E+00  0.00000000E+00
  0.00000000E+00  0.00000000E+00  0.00000000E+00
  0.00000000E+00  0.00000000E+00  0.00000000E+00
  0.00000000E+00  0.00000000E+00  0.00000000E+00
  0.00000000E+00  0.00000000E+00  0.00000000E+00
  0.00000000E+00  0.00000000E+00  0.00000000E+00
  0.00000000E+00  0.00000000E+00  0.00000000E+00
  0.00000000E+00  0.00000000E+00  0.00000000E+00
  0.00000000E+00  0.00000000E+00  0.00000000E+00
  0.00000000E+00  0.00000000E+00  0.00000000E+00
  0.00000000E+00  0.00000000E+00  0.00000000E+00
  0.00000000E+00  0.00000000E+00  0.00000000E+00
  0.00000000E+00  0.00000000E+00  0.00000000E+00
  0.00000000E+00  0.00000000E+00  0.00000000E+00
  0.00000000E+00  0.00000000E+00  0.00000000E+00
  0.00000000E+00  0.00000000E+00  0.00000000E+00
  0.00000000E+00  0.00000000E+00  0.00000000E+00
  0.00000000E+00  0.00000000E+00  0.00000000E+00
  0.00000000E+00  0.00000000E+00  0.00000000E+00
  0.00000000E+00  0.00000000E+00  0.00000000E+00
  0.00000000E+00  0.00000000E+00  0.00000000E+00
  0.00000000E+00  0.00000000E+00  0.00000000E+00
  0.00000000E+00  0.00000000E+00  0.00000000E+00
  0.00000000E+00  0.00000000E+00  0.00000000E+00
  0.00000000E+00  0.00000000E+00  0.00000000E+00
  0.00000000E+00  0.00000000E+00  0.00000000E+00
  0.00000000E+00  0.00000000E+00  0.00000000E+00
  0.00000000E+00  0.00000000E+00  0.00000000E+00
  0.00000000E+00  0.00000000E+00  0.00000000E+00
  0.00000000E+00  0.00000000E+00  0.00000000E+00
  0.00000000E+00  0.00000000E+00  0.00000000E+00
  0.00000000E+00  0.00000000E+00  0.00000000E+00
  0.00000000E+00  0.00000000E+00  0.00000000E+00
  0.00000000E+00  0.00000000E+00  0.00000000E+00
  0.00000000E+00  0.00000000E+00  0.00000000E+00
  0.00000000E+00  0.00000000E+00  0.00000000E+00
  0.00000000E+00  0.00000000E+00  0.00000000E+00
  0.00000000E+00  0.00000000E+00  0.00000000E+00
  0.00000000E+00  0.00000000E+00  0.00000000E+00
  0.00000000E+00  0.00000000E+00  0.00000000E+00
  0.00000000E+00  0.00000000E+00  0.00000000E+00
  0.00000000E+00  0.00000000E+00  0.00000000E+00
  0.00000000E+00  0.00000000E+00  0.00000000E+00
  0.00000000E+00  0.00000000E+00  0.00000000E+00
  0.00000000E+00  0.00000000E+00  0.00000000E+00
  0.00000000E+00  0.00000000E+00  0.00000000E+00
  0.00000000E+00  0.00000000E+00  0.00000000E+00
  0.00000000E+00  0.00000000E+00  0.00000000E+00
  0.00000000E+00  0.00000000E+00  0.00000000E+00
  0.00000000E+00  0.00000000E+00  0.00000000E+00
  0.00000000E+00  0.00000000E+00  0.00000000E+00
  0.00000000E+00  0.00000000E+00  0.00000000E+00
  0.00000000E+00  0.00000000E+00  0.00000000E+00
  0.00000000E+00  0.00000000E+00  0.00000000E+00
  0.00000000E+00  0.00000000E+00  0.00000000E+00
  0.00000000E+00  0.00000000E+00  0.00000000E+00
  0.00000000E+00  0.00000000E+00  0.00000000E+00
  0.00000000E+00  0.00000000E+00  0.00000000E+00
  0.00000000E+00  0.00000000E+00  0.00000000E+00
  0.00000000E+00  0.00000000E+00  0.00000000E+00
  0.00000000E+00  0.00000000E+00  0.00000000E+00
  0.00000000E+00  0.00000000E+00  0.00000000E+00
  0.00000000E+00  0.00000000E+00  0.00000000E+00
  0.00000000E+00  0.00000000E+00  0.00000000E+00
  0.00000000E+00  0.00000000E+00  0.00000000E+00
  0.00000000E+00  0.00000000E+00  0.00000000E+00
  0.00000000E+00  0.00000000E+00  0.00000000E+00
  0.00000000E+00  0.00000000E+00  0.00000000E+00
  0.00000000E+00  0.00000000E+00  0.00000000E+00
  0.00000000E+00  0.00000000E+00  0.00000000E+00
  0.00000000E+00  0.00000000E+00  0.00000000E+00
  0.00000000E+00  0.00000000E+00  0.00000000E+00
  0.00000000E+00  0.00000000E+00  0.00000000E+00
